p cnf 64 554
1 2 3 4 5 6 7 8 0
-1 -2 0
-1 -3 0
-1 -4 0
-1 -5 0
-1 -6 0
-1 -7 0
-1 -8 0
-2 -3 0
-2 -4 0
-2 -5 0
-2 -6 0
-2 -7 0
-2 -8 0
-3 -4 0
-3 -5 0
-3 -6 0
-3 -7 0
-3 -8 0
-4 -5 0
-4 -6 0
-4 -7 0
-4 -8 0
-5 -6 0
-5 -7 0
-5 -8 0
-6 -7 0
-6 -8 0
-7 -8 0
9 10 11 12 13 14 15 16 0
-9 -10 0
-9 -11 0
-9 -12 0
-9 -13 0
-9 -14 0
-9 -15 0
-9 -16 0
-10 -11 0
-10 -12 0
-10 -13 0
-10 -14 0
-10 -15 0
-10 -16 0
-11 -12 0
-11 -13 0
-11 -14 0
-11 -15 0
-11 -16 0
-12 -13 0
-12 -14 0
-12 -15 0
-12 -16 0
-13 -14 0
-13 -15 0
-13 -16 0
-14 -15 0
-14 -16 0
-15 -16 0
17 18 19 20 21 22 23 24 0
-17 -18 0
-17 -19 0
-17 -20 0
-17 -21 0
-17 -22 0
-17 -23 0
-17 -24 0
-18 -19 0
-18 -20 0
-18 -21 0
-18 -22 0
-18 -23 0
-18 -24 0
-19 -20 0
-19 -21 0
-19 -22 0
-19 -23 0
-19 -24 0
-20 -21 0
-20 -22 0
-20 -23 0
-20 -24 0
-21 -22 0
-21 -23 0
-21 -24 0
-22 -23 0
-22 -24 0
-23 -24 0
25 26 27 28 29 30 31 32 0
-25 -26 0
-25 -27 0
-25 -28 0
-25 -29 0
-25 -30 0
-25 -31 0
-25 -32 0
-26 -27 0
-26 -28 0
-26 -29 0
-26 -30 0
-26 -31 0
-26 -32 0
-27 -28 0
-27 -29 0
-27 -30 0
-27 -31 0
-27 -32 0
-28 -29 0
-28 -30 0
-28 -31 0
-28 -32 0
-29 -30 0
-29 -31 0
-29 -32 0
-30 -31 0
-30 -32 0
-31 -32 0
33 34 35 36 37 38 39 40 0
-33 -34 0
-33 -35 0
-33 -36 0
-33 -37 0
-33 -38 0
-33 -39 0
-33 -40 0
-34 -35 0
-34 -36 0
-34 -37 0
-34 -38 0
-34 -39 0
-34 -40 0
-35 -36 0
-35 -37 0
-35 -38 0
-35 -39 0
-35 -40 0
-36 -37 0
-36 -38 0
-36 -39 0
-36 -40 0
-37 -38 0
-37 -39 0
-37 -40 0
-38 -39 0
-38 -40 0
-39 -40 0
41 42 43 44 45 46 47 48 0
-41 -42 0
-41 -43 0
-41 -44 0
-41 -45 0
-41 -46 0
-41 -47 0
-41 -48 0
-42 -43 0
-42 -44 0
-42 -45 0
-42 -46 0
-42 -47 0
-42 -48 0
-43 -44 0
-43 -45 0
-43 -46 0
-43 -47 0
-43 -48 0
-44 -45 0
-44 -46 0
-44 -47 0
-44 -48 0
-45 -46 0
-45 -47 0
-45 -48 0
-46 -47 0
-46 -48 0
-47 -48 0
49 50 51 52 53 54 55 56 0
-49 -50 0
-49 -51 0
-49 -52 0
-49 -53 0
-49 -54 0
-49 -55 0
-49 -56 0
-50 -51 0
-50 -52 0
-50 -53 0
-50 -54 0
-50 -55 0
-50 -56 0
-51 -52 0
-51 -53 0
-51 -54 0
-51 -55 0
-51 -56 0
-52 -53 0
-52 -54 0
-52 -55 0
-52 -56 0
-53 -54 0
-53 -55 0
-53 -56 0
-54 -55 0
-54 -56 0
-55 -56 0
57 58 59 60 61 62 63 64 0
-57 -58 0
-57 -59 0
-57 -60 0
-57 -61 0
-57 -62 0
-57 -63 0
-57 -64 0
-58 -59 0
-58 -60 0
-58 -61 0
-58 -62 0
-58 -63 0
-58 -64 0
-59 -60 0
-59 -61 0
-59 -62 0
-59 -63 0
-59 -64 0
-60 -61 0
-60 -62 0
-60 -63 0
-60 -64 0
-61 -62 0
-61 -63 0
-61 -64 0
-62 -63 0
-62 -64 0
-63 -64 0
-1 -9 0
-1 -17 0
-1 -25 0
-1 -33 0
-1 -41 0
-1 -49 0
-1 -57 0
-9 -17 0
-9 -25 0
-9 -33 0
-9 -41 0
-9 -49 0
-9 -57 0
-17 -25 0
-17 -33 0
-17 -41 0
-17 -49 0
-17 -57 0
-25 -33 0
-25 -41 0
-25 -49 0
-25 -57 0
-33 -41 0
-33 -49 0
-33 -57 0
-41 -49 0
-41 -57 0
-49 -57 0
-2 -10 0
-2 -18 0
-2 -26 0
-2 -34 0
-2 -42 0
-2 -50 0
-2 -58 0
-10 -18 0
-10 -26 0
-10 -34 0
-10 -42 0
-10 -50 0
-10 -58 0
-18 -26 0
-18 -34 0
-18 -42 0
-18 -50 0
-18 -58 0
-26 -34 0
-26 -42 0
-26 -50 0
-26 -58 0
-34 -42 0
-34 -50 0
-34 -58 0
-42 -50 0
-42 -58 0
-50 -58 0
-3 -11 0
-3 -19 0
-3 -27 0
-3 -35 0
-3 -43 0
-3 -51 0
-3 -59 0
-11 -19 0
-11 -27 0
-11 -35 0
-11 -43 0
-11 -51 0
-11 -59 0
-19 -27 0
-19 -35 0
-19 -43 0
-19 -51 0
-19 -59 0
-27 -35 0
-27 -43 0
-27 -51 0
-27 -59 0
-35 -43 0
-35 -51 0
-35 -59 0
-43 -51 0
-43 -59 0
-51 -59 0
-4 -12 0
-4 -20 0
-4 -28 0
-4 -36 0
-4 -44 0
-4 -52 0
-4 -60 0
-12 -20 0
-12 -28 0
-12 -36 0
-12 -44 0
-12 -52 0
-12 -60 0
-20 -28 0
-20 -36 0
-20 -44 0
-20 -52 0
-20 -60 0
-28 -36 0
-28 -44 0
-28 -52 0
-28 -60 0
-36 -44 0
-36 -52 0
-36 -60 0
-44 -52 0
-44 -60 0
-52 -60 0
-5 -13 0
-5 -21 0
-5 -29 0
-5 -37 0
-5 -45 0
-5 -53 0
-5 -61 0
-13 -21 0
-13 -29 0
-13 -37 0
-13 -45 0
-13 -53 0
-13 -61 0
-21 -29 0
-21 -37 0
-21 -45 0
-21 -53 0
-21 -61 0
-29 -37 0
-29 -45 0
-29 -53 0
-29 -61 0
-37 -45 0
-37 -53 0
-37 -61 0
-45 -53 0
-45 -61 0
-53 -61 0
-6 -14 0
-6 -22 0
-6 -30 0
-6 -38 0
-6 -46 0
-6 -54 0
-6 -62 0
-14 -22 0
-14 -30 0
-14 -38 0
-14 -46 0
-14 -54 0
-14 -62 0
-22 -30 0
-22 -38 0
-22 -46 0
-22 -54 0
-22 -62 0
-30 -38 0
-30 -46 0
-30 -54 0
-30 -62 0
-38 -46 0
-38 -54 0
-38 -62 0
-46 -54 0
-46 -62 0
-54 -62 0
-7 -15 0
-7 -23 0
-7 -31 0
-7 -39 0
-7 -47 0
-7 -55 0
-7 -63 0
-15 -23 0
-15 -31 0
-15 -39 0
-15 -47 0
-15 -55 0
-15 -63 0
-23 -31 0
-23 -39 0
-23 -47 0
-23 -55 0
-23 -63 0
-31 -39 0
-31 -47 0
-31 -55 0
-31 -63 0
-39 -47 0
-39 -55 0
-39 -63 0
-47 -55 0
-47 -63 0
-55 -63 0
-8 -16 0
-8 -24 0
-8 -32 0
-8 -40 0
-8 -48 0
-8 -56 0
-8 -64 0
-16 -24 0
-16 -32 0
-16 -40 0
-16 -48 0
-16 -56 0
-16 -64 0
-24 -32 0
-24 -40 0
-24 -48 0
-24 -56 0
-24 -64 0
-32 -40 0
-32 -48 0
-32 -56 0
-32 -64 0
-40 -48 0
-40 -56 0
-40 -64 0
-48 -56 0
-48 -64 0
-56 -64 0
-1 -10 0
-2 -11 0
-3 -12 0
-4 -13 0
-5 -14 0
-6 -15 0
-7 -16 0
-9 -18 0
-10 -19 0
-11 -20 0
-12 -21 0
-13 -22 0
-14 -23 0
-15 -24 0
-17 -26 0
-18 -27 0
-19 -28 0
-20 -29 0
-21 -30 0
-22 -31 0
-23 -32 0
-25 -34 0
-26 -35 0
-27 -36 0
-28 -37 0
-29 -38 0
-30 -39 0
-31 -40 0
-33 -42 0
-34 -43 0
-35 -44 0
-36 -45 0
-37 -46 0
-38 -47 0
-39 -48 0
-41 -50 0
-42 -51 0
-43 -52 0
-44 -53 0
-45 -54 0
-46 -55 0
-47 -56 0
-49 -58 0
-50 -59 0
-51 -60 0
-52 -61 0
-53 -62 0
-54 -63 0
-55 -64 0
-2 -9 0
-3 -10 0
-4 -11 0
-5 -12 0
-6 -13 0
-7 -14 0
-8 -15 0
-10 -17 0
-11 -18 0
-12 -19 0
-13 -20 0
-14 -21 0
-15 -22 0
-16 -23 0
-18 -25 0
-19 -26 0
-20 -27 0
-21 -28 0
-22 -29 0
-23 -30 0
-24 -31 0
-26 -33 0
-27 -34 0
-28 -35 0
-29 -36 0
-30 -37 0
-31 -38 0
-32 -39 0
-34 -41 0
-35 -42 0
-36 -43 0
-37 -44 0
-38 -45 0
-39 -46 0
-40 -47 0
-42 -49 0
-43 -50 0
-44 -51 0
-45 -52 0
-46 -53 0
-47 -54 0
-48 -55 0
-50 -57 0
-51 -58 0
-52 -59 0
-53 -60 0
-54 -61 0
-55 -62 0
-56 -63 0

